NAME: random_50_1
TYPE: TSP
COMMENT: random_50_1
DIMENSION: 50
EDGE_WEIGHT_TYPE: EUC_2D
NODE_COORD_SECTION
1 281 356
2 244 441
3 444 254
4 240 128
5 341 50
6 298 431
7 59 42
8 28 328
9 276 398
10 268 166
11 476 392
12 202 31
13 165 266
14 20 5
15 454 53
16 91 463
17 148 429
18 195 62
19 52 97
20 382 141
21 426 271
22 171 472
23 64 9
24 400 150
25 95 154
26 495 382
27 373 89
28 145 61
29 304 155
30 127 485
31 47 429
32 197 389
33 211 239
34 311 230
35 209 396
36 423 64
37 231 472
38 270 391
39 318 301
40 206 488
41 285 114
42 191 63
43 98 442
44 380 341
45 493 87
46 314 123
47 395 419
48 109 274
49 157 148
50 25 118
